% Auto-generated by scripts/generate_dzn.py
% problem_type   = regex
% instance       = regex_13
% source_json    = instances_json/1_medium_blowup/regex_13.json
% blowup         = 8.545454545454545
% representation = NFA

mode = 1;

var_count = 18;
Q = 22;
S = 2;
q0 = 1;
F = {21, 22};
d_dfa = array2d(1..22, 1..2, [
  0, 0,
  0, 0,
  0, 0,
  0, 0,
  0, 0,
  0, 0,
  0, 0,
  0, 0,
  0, 0,
  0, 0,
  0, 0,
  0, 0,
  0, 0,
  0, 0,
  0, 0,
  0, 0,
  0, 0,
  0, 0,
  0, 0,
  0, 0,
  0, 0,
  0, 0
]);
d_nfa = array2d(1..22, 1..2, [
  {2}, {3, 4},
  {2}, {3, 4},
  {2}, {3, 4},
  {}, {5},
  {}, {6},
  {7}, {8},
  {9}, {10},
  {9}, {10},
  {11}, {12},
  {11}, {12},
  {13}, {14},
  {13}, {14},
  {15}, {16},
  {15}, {16},
  {17}, {18},
  {17}, {18},
  {19}, {20},
  {19}, {20},
  {21}, {22},
  {21}, {22},
  {}, {},
  {}, {}
]);
